1,0,0
1,0,0
1,0,0
1,0,0
1,0,0
1,0,0
0,0,0
0,0,0
0,0,11000011
0,1,11000011
0,0,11000011
0,0,11000011
0,0,11000011
0,0,11000011
0,0,11000011
0,0,11000011
0,0,11111101
0,1,11111101
0,0,11111101
0,0,11111101
0,0,11111101